# Solution for model problem_
# Objective value = 6.8798136314006479e+04
x(0_0) 0
x(0_1) 0
x(0_2) 0
x(0_3) 0
x(0_4) 0
x(0_5) 0
x(0_6) 1
x(0_7) 0
x(0_8) 0
x(0_9) 0
x(0_10) 0
x(0_11) 0
x(1_12) 0
x(1_13) 1
x(1_14) 0
x(1_15) 0
x(1_16) 0
x(1_17) 0
x(1_18) 0
x(1_19) 0
x(1_20) 0
x(1_21) 0
x(1_22) 0
x(1_23) 0
x(1_24) 0
x(1_25) 0
x(1_26) 0
x(1_27) 0
x(2_28) 0
x(2_29) 0
x(2_30) 0
x(2_31) 0
x(2_32) 0
x(2_33) 0
x(2_34) 0
x(2_35) 0
x(2_36) 0
x(2_37) 1
x(3_38) 0
x(3_39) 0
x(3_40) 0
x(3_41) 0
x(3_42) 0
x(3_43) 0
x(3_44) 1
x(3_45) 0
x(3_46) 0
x(3_47) 0
x(3_48) 0
x(3_49) 0
x(3_50) 0
x(3_51) 0
x(3_52) 0
x(3_53) 0
x(3_54) 0
x(3_55) 0
x(3_56) 0
x(3_57) 0
x(4_58) 0
x(4_59) 0
x(4_60) 1
x(4_61) 0
x(4_62) 0
x(4_63) 0
x(4_64) 0
x(4_65) 0
x(4_66) 0
x(4_67) 0
x(4_68) 0
x(4_69) 0
x(4_70) 0
x(4_71) 0
x(4_72) 0
x(4_73) 0
x(4_74) 0
x(5_75) 0
x(5_76) 0
x(5_77) 0
x(5_78) 0
x(5_79) 0
x(5_80) 0
x(5_81) 0
x(5_82) 0
x(5_83) 0
x(5_84) 0
x(5_85) 0
x(5_86) 0
x(5_87) 0
x(5_88) 0
x(5_89) 1
x(6_90) 0
x(6_91) 0
x(6_92) 0
x(6_93) 0
x(6_94) 0
x(6_95) 0
x(6_96) 1
x(6_97) 0
x(6_98) 0
x(6_99) 0
x(6_100) 0
x(6_101) 0
x(6_102) 0
x(6_103) 0
x(7_104) 0
x(7_105) 0
x(7_106) 0
x(7_107) 0
x(7_108) 0
x(7_109) 0
x(7_110) 0
x(7_111) 0
x(7_112) 0
x(7_113) 0
x(7_114) 0
x(7_115) 0
x(7_116) 0
x(7_117) 1
x(7_118) 0
x(7_119) 0
x(7_120) 0
x(7_121) 0
x(7_122) 0
x(7_123) 0
x(8_124) 0
x(8_125) 0
x(8_126) 1
x(8_127) 0
x(8_128) 0
x(8_129) 0
x(8_130) 0
x(8_131) 0
x(8_132) 0
x(8_133) 0
x(8_134) 0
x(8_135) 0
x(9_136) 0
x(9_137) 0
x(9_138) 0
x(9_139) 0
x(9_140) 0
x(9_141) 0
x(9_142) 0
x(9_143) 0
x(9_144) 0
x(9_145) 0
x(9_146) 0
x(9_147) 0
x(9_148) 1
x(10_149) 0
x(10_150) 0
x(10_151) 0
x(10_152) 1
x(10_153) 0
x(10_154) 0
x(10_155) 0
x(10_156) 0
x(10_157) 0
x(10_158) 0
x(10_159) 0
x(10_160) 0
x(10_161) 0
x(10_162) 0
x(10_163) 0
x(10_164) 0
x(10_165) 0
x(10_166) 0
x(10_167) 0
x(10_168) 0
x(11_169) 0
x(11_170) 0
x(11_171) 0
x(11_172) 0
x(11_173) 0
x(11_174) 1
x(11_175) 0
x(11_176) 0
x(11_177) 0
x(11_178) 0
x(11_179) 0
x(11_180) 0
x(11_181) 0
x(11_182) 0
x(11_183) 0
x(11_184) 0
x(11_185) 0
x(12_186) 0
x(12_187) 0
x(12_188) 0
x(12_189) 1
x(12_190) 0
x(12_191) 0
x(12_192) 0
x(12_193) 0
x(12_194) 0
x(12_195) 0
x(12_196) 0
x(12_197) 0
x(12_198) 0
x(12_199) 0
x(12_200) 0
x(12_201) 0
x(13_202) 0
x(13_203) 0
x(13_204) 0
x(13_205) 0
x(13_206) 0
x(13_207) 0
x(13_208) 1
x(13_209) 0
x(13_210) 0
x(13_211) 0
x(13_212) 0
x(13_213) 0
x(13_214) 0
x(13_215) 0
x(14_216) 0
x(14_217) 0
x(14_218) 0
x(14_219) 1
x(14_220) 0
x(14_221) 0
x(14_222) 0
x(14_223) 0
x(14_224) 0
x(14_225) 0
x(14_226) 0
x(15_227) 0
x(15_228) 0
x(15_229) 0
x(15_230) 0
x(15_231) 0
x(15_232) 0
x(15_233) 0
x(15_234) 1
x(15_235) 0
x(15_236) 0
x(15_237) 0
x(15_238) 0
x(15_239) 0
x(16_240) 0
x(16_241) 0
x(16_242) 0
x(16_243) 0
x(16_244) 0
x(16_245) 0
x(16_246) 0
x(16_247) 1
x(16_248) 0
x(16_249) 0
x(17_250) 0
x(17_251) 0
x(17_252) 0
x(17_253) 0
x(17_254) 0
x(17_255) 0
x(17_256) 0
x(17_257) 0
x(17_258) 0
x(17_259) 0
x(17_260) 0
x(17_261) 0
x(17_262) 0
x(17_263) 1
x(17_264) 0
x(17_265) 0
x(17_266) 0
x(18_267) 0
x(18_268) 1
x(18_269) 0
x(18_270) 0
x(18_271) 0
x(18_272) 0
x(18_273) 0
x(18_274) 0
x(18_275) 0
x(18_276) 0
x(18_277) 0
x(18_278) 0
x(18_279) 0
x(18_280) 0
x(18_281) 0
x(18_282) 0
x(18_283) 0
x(18_284) 0
x(19_285) 0
x(19_286) 0
x(19_287) 0
x(19_288) 0
x(19_289) 0
x(19_290) 0
x(19_291) 0
x(19_292) 0
x(19_293) 0
x(19_294) 1
x(19_295) 0
x(20_296) 0
x(20_297) 0
x(20_298) 0
x(20_299) 0
x(20_300) 0
x(20_301) 0
x(20_302) 0
x(20_303) 0
x(20_304) 0
x(20_305) 0
x(20_306) 0
x(20_307) 1
x(20_308) 0
x(20_309) 0
x(21_310) 1
x(21_311) 0
x(21_312) 0
x(21_313) 0
x(21_314) 0
x(21_315) 0
x(21_316) 0
x(21_317) 0
x(21_318) 0
x(21_319) 0
x(21_320) 0
x(21_321) 0
x(22_322) 0
x(22_323) 0
x(22_324) 0
x(22_325) 0
x(22_326) 0
x(22_327) 0
x(22_328) 1
x(22_329) 0
x(22_330) 0
x(22_331) 0
x(22_332) 0
x(22_333) 0
x(22_334) 0
x(22_335) 0
x(23_336) 1
x(23_337) 0
x(23_338) 0
x(23_339) 0
x(23_340) 0
x(23_341) 0
x(23_342) 0
x(23_343) 0
x(23_344) 0
x(23_345) 0
x(23_346) 0
x(23_347) 0
x(23_348) 0
x(23_349) 0
x(23_350) 0
x(23_351) 0
x(24_352) 0
x(24_353) 0
x(24_354) 0
x(24_355) 0
x(24_356) 0
x(24_357) 0
x(24_358) 0
x(24_359) 1
x(24_360) 0
x(24_361) 0
x(24_362) 0
x(24_363) 0
x(24_364) 0
x(24_365) 0
x(24_366) 0
x(24_367) 0
x(24_368) 0
x(24_369) 0
x(24_370) 0
x(24_371) 0
x_1_0 1.0955178454518318e+02
s_1_0 0
z_1_0 0
x_1_1 1.0974212421849370e+02
s_1_1 0
z_1_1 0
x_1_2 0
s_1_2 0.53243004763317
z_1_2 1
x_1_3 1.0984814944863319e+02
s_1_3 0
z_1_3 0
x_1_4 4.9999729784507537e+04
s_1_4 5.0000270215492463e+04
z_1_4 5.0000270215492459e-01
x_1_5 1.1120248392969370e+02
s_1_5 0
z_1_5 0
x_1_6 0
s_1_6 5.6096479063853621e-01
z_1_6 1
x_1_7 1.1065897682169452e+02
s_1_7 0
z_1_7 0
x_1_8 0
s_1_8 7.0192215358838439e-01
z_1_8 1
x_1_9 1.0997636312711984e+02
s_1_9 0
z_1_9 0
x_1_10 1.1110919144749641e+02
s_1_10 0
z_1_10 0
x_1_11 1.1021641762368381e+02
s_1_11 0
z_1_11 0
x_1_12 0
s_1_12 6.8254552641883492e-01
z_1_12 1
x_1_13 1.1138346337736584e+02
s_1_13 0
z_1_13 0
x_1_14 0
s_1_14 3.8266930892132223e-01
z_1_14 1
x_1_15 4.9999692741537474e+04
s_1_15 5.0000307258462533e+04
z_1_15 5.0000307258462529e-01
x_1_16 1.0972438499704003e+02
s_1_16 0
z_1_16 0
x_1_17 1.1080978370597586e+02
s_1_17 0
z_1_17 0
x_1_18 1.0984130292013288e+02
s_1_18 0
z_1_18 0
x_1_19 1.1062177026085556e+02
s_1_19 0
z_1_19 0
x_1_20 1.0758791844174266e+02
s_1_20 0
z_1_20 0
x_1_21 1.0961398765631020e+02
s_1_21 0
z_1_21 0
x_1_22 1.0980608506686985e+02
s_1_22 0
z_1_22 0
x_1_23 1.1109733483940363e+02
s_1_23 0
z_1_23 0
x_1_24 0
s_1_24 3.1208275479730219e-01
z_1_24 1
x_1_25 0
s_1_25 6.2781859096139669e-01
z_1_25 1
x_1_26 0
s_1_26 7.8936282114591449e-01
z_1_26 1
x_1_27 1.1010834160819650e+02
s_1_27 0
z_1_27 0
x_1_28 1.0958600152470171e+02
s_1_28 0
z_1_28 0
x_1_29 0
s_1_29 0.692082860507071
z_1_29 1
x_1_30 1.1114102054014802e+02
s_1_30 0
z_1_30 0
x_1_31 0
s_1_31 7.1222310769371688e-01
z_1_31 1
x_1_32 1.0935224699042737e+02
s_1_32 0
z_1_32 0
x_1_33 0
s_1_33 8.4462804486975074e-01
z_1_33 1
x_1_34 0
s_1_34 7.5429347716271877e-01
z_1_34 1
x_1_35 1.1034852055273950e+02
s_1_35 0
z_1_35 0
x_1_36 0
s_1_36 6.5325854765251279e-01
z_1_36 1
x_1_37 1.1111057658493519e+02
s_1_37 0
z_1_37 0
x_1_38 0
s_1_38 0.809632713906467
z_1_38 1
x_1_39 0
s_1_39 5.7388119446113706e-01
z_1_39 1
x_1_40 1.1107958351261914e+02
s_1_40 0
z_1_40 0
x_1_41 1.1115411956235766e+02
s_1_41 0
z_1_41 0
x_1_42 1.0971081537939608e+02
s_1_42 0
z_1_42 0
x_1_43 1.0949799694865942e+02
s_1_43 0
z_1_43 0
x_1_44 1.1098606913909316e+02
s_1_44 0
z_1_44 0
x_1_45 0
s_1_45 6.9291597152187023e-01
z_1_45 1
x_1_46 1.1110168751701713e+02
s_1_46 0
z_1_46 0
x_1_47 0
s_1_47 7.1853814600035548e-01
z_1_47 1
x_1_48 0
s_1_48 6.0379613796249032e-01
z_1_48 1
x_1_49 1.1051080677332357e+02
s_1_49 0
z_1_49 0
x_1_50 1.1102216254919767e+02
s_1_50 0
z_1_50 0
x_1_51 1.0992387137189507e+02
s_1_51 0
z_1_51 0
x_1_52 1.1071181527990848e+02
s_1_52 0
z_1_52 0
x_1_53 0
s_1_53 4.9278329061053228e-01
z_1_53 1
x_1_54 1.1071813065372407e+02
s_1_54 0
z_1_54 0
x_1_55 1.1087895102798939e+02
s_1_55 0
z_1_55 0
x_1_56 1.1118763442337513e+02
s_1_56 0
z_1_56 0
x_1_57 1.1084123542113230e+02
s_1_57 0
z_1_57 0
x_1_58 1.1101119414158165e+02
s_1_58 0
z_1_58 0
x_1_59 0
s_1_59 6.1535053444094956e-01
z_1_59 1
x_1_60 0
s_1_60 8.0193853005766869e-01
z_1_60 1
x_1_61 1.1077508338470943e+02
s_1_61 0
z_1_61 0
x_1_62 0
s_1_62 0.744455283973366
z_1_62 1
x_1_63 1.1066803950909525e+02
s_1_63 0
z_1_63 0
x_1_64 1.1086273929709569e+02
s_1_64 0
z_1_64 0
x_1_65 1.1070197170227766e+02
s_1_65 0
z_1_65 0
x_1_66 1.1155555995367467e+02
s_1_66 0
z_1_66 0
x_1_67 1.1112733780965209e+02
s_1_67 0
z_1_67 0
x_1_68 1.1130645228130743e+02
s_1_68 0
z_1_68 0
x_1_69 1.1107284339517355e+02
s_1_69 0
z_1_69 0
x_1_70 1.1034196117892861e+02
s_1_70 0
z_1_70 0
x_1_71 1.0823574207536876e+02
s_1_71 0
z_1_71 0
x_1_72 1.1073369630356319e+02
s_1_72 0
z_1_72 0
x_1_73 1.1078993271617219e+02
s_1_73 0
z_1_73 0
x_1_74 0
s_1_74 1.1458965914789587e-01
z_1_74 1
x_1_75 0
s_1_75 4.4624853658024222e-01
z_1_75 1
x_1_76 0
s_1_76 5.3801834804471582e-01
z_1_76 1
x_1_77 1.0947888831421733e+02
s_1_77 0
z_1_77 0
x_1_78 1.1072353540733457e+02
s_1_78 0
z_1_78 0
x_1_79 1.1088223569095135e+02
s_1_79 0
z_1_79 0
x_1_80 1.1034534992277622e+02
s_1_80 0
z_1_80 0
x_1_81 0
s_1_81 6.7811869224533439e-01
z_1_81 1
x_1_82 1.0983704739995301e+02
s_1_82 0
z_1_82 0
x_1_83 0
s_1_83 4.9253894854336977e-01
z_1_83 1
x_1_84 1.1109688899666071e+02
s_1_84 0
z_1_84 0
x_1_85 1.0954175834637135e+02
s_1_85 0
z_1_85 0
x_1_86 1.1078135130554438e+02
s_1_86 0
z_1_86 0
x_1_87 1.1031740291602910e+02
s_1_87 0
z_1_87 0
x_1_88 1.1119287613686174e+02
s_1_88 0
z_1_88 0
x_1_89 1.1138272989541292e+02
s_1_89 0
z_1_89 0
x_1_90 0
s_1_90 4.5500567462295294e-01
z_1_90 1
x_1_91 0
s_1_91 4.7910652949940413e-01
z_1_91 1
x_1_92 1.1065721532143652e+02
s_1_92 0
z_1_92 0
x_1_93 0
s_1_93 3.5673669539391994e-01
z_1_93 1
x_1_94 1.1083323264680803e+02
s_1_94 0
z_1_94 0
x_1_95 1.1027919938787818e+02
s_1_95 0
z_1_95 0
x_1_96 0
s_1_96 6.4156668912619352e-01
z_1_96 1
x_1_97 1.1003717254102230e+02
s_1_97 0
z_1_97 0
x_1_98 0
s_1_98 5.9983505145646632e-01
z_1_98 1
x_1_99 1.0993765809386969e+02
s_1_99 0
z_1_99 0
x_1_100 1.0854116993770003e+02
s_1_100 0
z_1_100 0
x_1_101 1.1049141099490225e+02
s_1_101 0
z_1_101 0
x_1_102 0
s_1_102 4.2734469287097454e-01
z_1_102 1
x_1_103 0
s_1_103 9.0108176041394472e-01
z_1_103 1
x_1_104 1.1140287741273642e+02
s_1_104 0
z_1_104 0
x_1_105 1.0989598587155342e+02
s_1_105 0
z_1_105 0
x_1_106 1.1048252897523344e+02
s_1_106 0
z_1_106 0
x_1_107 0
s_1_107 0.946754639968276
z_1_107 1
x_1_108 0
s_1_108 5.3460539292427711e-01
z_1_108 1
x_1_109 0
s_1_109 7.4412147700786591e-01
z_1_109 1
x_1_110 0
s_1_110 4.5524060563184321e-01
z_1_110 1
x_1_111 1.1051308234035969e+02
s_1_111 0
z_1_111 0
x_1_112 1.1040669355913997e+02
s_1_112 0
z_1_112 0
x_1_113 1.1073967702919617e+02
s_1_113 0
z_1_113 0
x_1_114 1.1118019635044038e+02
s_1_114 0
z_1_114 0
x_1_115 0
s_1_115 8.7720224121585488e-01
z_1_115 1
x_1_116 0
s_1_116 6.7247197451069951e-01
z_1_116 1
x_1_117 1.1067657786980271e+02
s_1_117 0
z_1_117 0
x_1_118 1.0942087468132377e+02
s_1_118 0
z_1_118 0
x_1_119 0
s_1_119 3.2251342618837953e-01
z_1_119 1
x_1_120 0
s_1_120 7.3190765525214374e-01
z_1_120 1
x_1_121 1.0806046753749251e+02
s_1_121 0
z_1_121 0
x_1_122 0
s_1_122 1.6935377387562767e-01
z_1_122 1
x_1_123 4.9999535281157361e+04
s_1_123 5.0000464718842646e+04
z_1_123 5.0000464718842641e-01
x_1_124 1.1111150950193405e+02
s_1_124 0
z_1_124 0
x_1_125 0
s_1_125 6.3731971400557086e-02
z_1_125 1
x_1_126 0
s_1_126 7.2861895617097616e-01
z_1_126 1
x_1_127 1.1082909349352121e+02
s_1_127 0
z_1_127 0
x_1_128 1.1010797779634595e+02
s_1_128 0
z_1_128 0
x_1_129 0
s_1_129 6.5638681035488844e-01
z_1_129 1
x_1_130 1.1067631823942065e+02
s_1_130 0
z_1_130 0
x_1_131 1.1023989172279835e+02
s_1_131 0
z_1_131 0
x_1_132 0
s_1_132 5.7002490723971277e-01
z_1_132 1
x_1_133 0
s_1_133 4.3690327103831805e-01
z_1_133 1
x_1_134 1.1086377854924649e+02
s_1_134 0
z_1_134 0
x_1_135 1.1042753151990473e+02
s_1_135 0
z_1_135 0
x_1_136 1.1039851338043809e+02
s_1_136 0
z_1_136 0
x_1_137 0
s_1_137 2.9338073456892744e-01
z_1_137 1
x_1_138 1.1020926567353308e+02
s_1_138 0
z_1_138 0
x_1_139 0
s_1_139 5.0423630326986313e-01
z_1_139 1
x_1_140 1.1091067521460354e+02
s_1_140 0
z_1_140 0
x_1_141 1.1109627721831203e+02
s_1_141 0
z_1_141 0
x_1_142 1.0979079455323517e+02
s_1_142 0
z_1_142 0
x_1_143 1.1062633870169520e+02
s_1_143 0
z_1_143 0
x_1_144 1.1077635965123773e+02
s_1_144 0
z_1_144 0
x_1_145 1.0944120655767620e+02
s_1_145 0
z_1_145 0
x_1_146 1.1029130389168859e+02
s_1_146 0
z_1_146 0
x_1_147 1.1120135444775224e+02
s_1_147 0
z_1_147 0
x_1_148 1.1082907767966390e+02
s_1_148 0
z_1_148 0
x_1_149 1.0998713899403811e+02
s_1_149 0
z_1_149 0
x_1_150 1.1100362762063742e+02
s_1_150 0
z_1_150 0
x_1_151 111.26829620637
s_1_151 0
z_1_151 0
x_1_152 0
s_1_152 0.398200954310596
z_1_152 1
x_1_153 1.0984016841580160e+02
s_1_153 0
z_1_153 0
x_1_154 0
s_1_154 9.3658054666593671e-01
z_1_154 1
x_1_155 0
s_1_155 0.812047956045717
z_1_155 1
x_1_156 0
s_1_156 6.0854560835286975e-01
z_1_156 1
x_1_157 0
s_1_157 5.7964388700202107e-01
z_1_157 1
x_1_158 0
s_1_158 5.7342685863841325e-01
z_1_158 1
x_1_159 1.1089706497825682e+02
s_1_159 0
z_1_159 0
x_2_0 6.8513120314006475e+04
